ACTORES={Dylan, Ki, Kaya};
Escenas= [|  0, 1, 0, 1, 0, 1, 3|
  1, 0, 1, 1, 0, 0, 5|
  0, 1, 0, 0, 1, 0, 7|];
Duracion = [1, 2, 3, 4, 5, 6];
Disponibilidad = [|Dylan, 0
|Ki, 0
|Kaya, 0|];
Evitar = [|Dylan, Ki|];
